%chk=field_h_gs_negdot025_2cyc_8p95eV_lr
#p hf/sto-3g 

system 1 (H): B3LYP/STO-3G geometry, LR- and RT-TDHF "S0" calc

0 1
 C                     0.80047  -0.66509  -0.11827
 C                     2.00688  -0.11078   0.11778
 N                    -0.42044  -0.02054  -0.25877
 H                     0.72728  -1.74301  -0.25651
 H                     2.88973  -0.74049   0.12699
 H                     2.1558    0.95118   0.28205
 C                    -0.46614   1.407    -0.00277
 C                    -1.60885  -0.76328   0.1366
 H                     0.28052   1.9183   -0.61906
 H                    -0.26928   1.65331   1.05622
 H                    -1.45497   1.79021  -0.27221
 H                    -1.76538  -0.76587   1.23004
 H                    -1.52099  -1.80168  -0.19844
 H                    -2.49378  -0.32528  -0.33773

--link1--
%oldchk=field_h_gs_negdot025_2cyc_8p95eV_lr
%chk=field_h_gs_negdot025_2cyc_8p95eV
#p hf/sto-3g RealTimeSCF(nfock=100,stepsize=5000,maxpoints=10000) geom=allcheck guess=read complex empulse iop(5/141=2,5/144=-1,5/143=100) 

0

! <field and gauge> <pulse envelope> T_on(au) T_off(au) freq(Ha) phase(rad) <amplitudes> <wave vectors>
ElectricLength step ton=0.0 toff=38.20 freq=0.329 phase=-1.57 Examp=-0.025

