%chk=sys1_h_field_0.005_cyc_1.chk
%subst l512 /home/kranka/proj_isborn/tddft_ml/tdci_comparison/rt/MMUTupdate/y
#p nonstd
 1/38=1,172=1/1;
 2/12=2,17=6,18=5,40=1/2;
 3/6=3,11=2,16=1,25=1,30=1,116=2/1,2,3;
 4/7=2/1;
 5/33=3,105=3,106=100200,107=10231,110=23,111=6,112=1,113=1,115=0/12;
 99/9=1/99;

system 1 B3LYP/6-31G* geometry, 20 fs, S1 trans dipole along x-axis

0 1
 C                     0.80047  -0.66509  -0.11827
 C                     2.00688  -0.11078   0.11778
 N                    -0.42044  -0.02054  -0.25877
 H                     0.72728  -1.74301  -0.25651
 H                     2.88973  -0.74049   0.12699
 H                     2.1558    0.95118   0.28205
 C                    -0.46614   1.407    -0.00277
 C                    -1.60885  -0.76328   0.1366
 H                     0.28052   1.9183   -0.61906
 H                    -0.26928   1.65331   1.05622
 H                    -1.45497   1.79021  -0.27221
 H                    -1.76538  -0.76587   1.23004
 H                    -1.52099  -1.80168  -0.19844
 H                    -2.49378  -0.32528  -0.33773

! Ex  Ey  Ez   Freq  phase T_on T_off     ?Gaussian wave packet
! 1   2   3    4(eV) 5(eV) 6(fs) 7(fs)  8(2pi/4)
1 0.005 0.0 0.0 8.9475 0.0   0.0  0.462  00.00
!input chkpnt file
/home/kranka/proj_isborn/tddft_ml/tdci_comparison/rt/sys1/tdhf/uhf_sys1_h_sto-3g.chk
