%chk=cis-30roots_s0_sys1_h_sto-3g.chk
#p hf/sto-3g CIS(NStates=30,Root=1,Singlets,AllTransitionDensities) IOp(3/33=3,3/36=1,4/33=3,5/33=3,5/72=-3,6/8=1,6/33=3,8/10=90,9/33=3,9/40=3)

system 1 CIS

0 1
C          0.80047       -0.66509       -0.11827
C          2.00688       -0.11078        0.11778
N         -0.42044       -0.02054       -0.25877
H          0.72728       -1.74301       -0.25651
H          2.88973       -0.74049        0.12699
H          2.15580        0.95118        0.28205
C         -0.46614        1.40700       -0.00277
C         -1.60885       -0.76328        0.13660
H          0.28052        1.91830       -0.61906
H         -0.26928        1.65331        1.05622
H         -1.45497        1.79021       -0.27221
H         -1.76538       -0.76587        1.23004
H         -1.52099       -1.80168       -0.19844
H         -2.49378       -0.32528       -0.33773

